28
2 10 19 
1 38 
3 43 56 11 
2 52 22 
2 4 46 
3 47 30 33 
2 44 26 
3 1 15 21 
2 25 16 
3 6 8 14 
2 9 49 
2 13 34 
3 31 51 54 
1 3 
2 7 40 
1 20 
3 36 57 27 
2 59 35 
2 55 37 
2 60 18 
1 42 
3 24 39 23 
1 53 
3 5 41 29 
2 48 45 
3 17 58 12 
2 2 32 
2 50 28 
